adpp_gurobi/instances/gcut7_adpp.txt
30
10	10
6	4	0	1	1531
5	3	0	1	938
3	4	0	1	951
4	3	0	1	822
6	6	0	1	2241
3	7	0	1	1261
4	6	0	1	1347
4	5	0	1	1224
5	4	0	1	1010
4	4	0	1	926
3	5	0	1	1080
7	6	0	1	2264
5	4	0	1	1182
4	6	0	1	1693
5	6	0	1	1825
4	4	0	1	1057
3	3	0	1	594
5	6	0	1	1977
6	5	0	1	1852
4	4	0	1	1081
6	6	0	1	1902
2	2	0	1	379
5	5	0	1	1463
7	7	0	1	2464
3	5	0	1	959
7	7	0	1	2730
2	5	0	1	751
5	3	0	1	1045
2	3	0	1	510
2	7	0	1	1024
